
Gurobi 5.6.3 (win64) logging started 10/05/14 13:13:58


Gurobi Optimizer version 5.6.3 build v5.6.3rc2 (win64)
Copyright (c) 2013, Gurobi Optimization, Inc.

Read LP format model from file simple.lp
Reading time = 0.00 seconds
(null): 2 rows, 2 columns, 4 nonzeros
Optimize a model with 2 rows, 2 columns and 4 nonzeros
Presolve time: 0.00s
Presolved: 2 rows, 2 columns, 4 nonzeros

Iteration    Objective       Primal Inf.    Dual Inf.      Time
       0    3.0000000e+30   3.500000e+30   3.000000e+00      0s
       1    8.0000000e+01   0.000000e+00   0.000000e+00      0s

Solved in 1 iterations and 0.02 seconds
Optimal objective  8.000000000e+01

Wrote result file 'simple.sol'

